c 
c G(k,n,p) graph
c graph gen seed     : 93729113
c number of vertices : 70
c max number of edges: 1225
c number of classes  : 2
c edge density       : 0.100000
c edge probability   : 0.200000
c data structure     : sparse
c
c           Graph Stats
c number of vertices  : 70
c nonisolated vertices: 70
c number of edges     : 276
c edge density        : 0.114286
c max degree          : 15
c avg degree          : 7.89
c min degree          : 3
p col 70 276
e 1 51
e 1 44
e 1 39
e 1 38
e 1 34
e 1 29
e 1 27
e 1 21
e 1 15
e 1 13
e 1 11
e 2 67
e 2 58
e 2 37
e 2 34
e 2 27
e 2 11
e 3 66
e 3 57
e 3 56
e 3 45
e 3 43
e 4 48
e 4 46
e 4 33
e 4 28
e 4 24
e 5 48
e 5 43
e 5 24
e 5 20
e 5 7
e 6 60
e 6 54
e 6 49
e 6 39
e 6 36
e 6 34
e 6 15
e 6 9
e 6 8
e 7 69
e 7 13
e 7 8
e 8 56
e 8 48
e 8 23
e 8 16
e 8 14
e 9 68
e 9 66
e 9 32
e 9 26
e 9 24
e 9 16
e 10 65
e 10 61
e 10 48
e 10 46
e 10 32
e 10 20
e 10 16
e 11 63
e 11 48
e 11 43
e 11 28
e 11 25
e 11 24
e 11 20
e 12 66
e 12 63
e 12 61
e 12 56
e 12 32
e 12 28
e 12 23
e 12 22
e 12 18
e 13 63
e 13 57
e 13 50
e 13 48
e 13 46
e 13 45
e 13 40
e 13 35
e 14 62
e 14 55
e 14 52
e 14 51
e 14 27
e 15 56
e 15 40
e 15 28
e 15 26
e 15 20
e 16 70
e 16 64
e 16 53
e 16 51
e 16 49
e 16 42
e 16 41
e 16 29
e 16 27
e 16 21
e 16 17
e 17 57
e 17 35
e 17 25
e 17 20
e 18 69
e 18 59
e 18 54
e 18 41
e 19 69
e 19 51
e 19 42
e 19 39
e 19 38
e 19 31
e 19 27
e 20 69
e 20 55
e 20 54
e 20 51
e 20 44
e 20 41
e 20 39
e 20 34
e 20 29
e 20 27
e 21 65
e 21 63
e 21 56
e 21 48
e 21 47
e 21 28
e 21 26
e 21 24
e 22 59
e 22 53
e 22 52
e 22 51
e 22 42
e 22 31
e 22 29
e 22 27
e 23 70
e 23 69
e 23 54
e 23 49
e 23 39
e 23 38
e 23 37
e 23 34
e 24 69
e 24 59
e 24 54
e 24 49
e 24 42
e 24 31
e 24 27
e 25 67
e 25 51
e 25 39
e 25 38
e 25 31
e 25 29
e 26 69
e 26 67
e 26 51
e 26 49
e 26 44
e 26 39
e 26 34
e 27 56
e 27 48
e 27 45
e 27 40
e 27 32
e 28 64
e 28 55
e 28 49
e 29 56
e 29 40
e 29 32
e 30 70
e 30 67
e 30 59
e 30 55
e 30 42
e 30 38
e 30 36
e 31 43
e 31 40
e 31 33
e 31 32
e 32 69
e 32 41
e 32 37
e 32 36
e 33 64
e 33 58
e 33 51
e 33 49
e 34 56
e 34 46
e 34 43
e 35 60
e 35 52
e 35 44
e 35 39
e 35 36
e 36 68
e 36 66
e 37 65
e 37 56
e 37 46
e 38 63
e 38 57
e 38 46
e 38 45
e 39 57
e 39 56
e 39 48
e 39 43
e 40 64
e 40 62
e 41 66
e 41 61
e 41 47
e 42 63
e 42 56
e 42 48
e 42 43
e 43 52
e 44 66
e 44 56
e 44 45
e 46 70
e 46 69
e 46 67
e 46 62
e 46 60
e 47 67
e 47 64
e 47 54
e 47 53
e 47 52
e 47 49
e 48 62
e 48 59
e 48 54
e 48 53
e 49 66
e 49 57
e 50 70
e 50 53
e 52 68
e 52 66
e 52 63
e 52 61
e 54 63
e 55 68
e 55 57
e 55 56
e 56 64
e 56 58
e 57 70
e 60 68
e 61 70
e 61 64
e 63 67
e 63 64
e 67 68
